29 29
24
3 3 14 0
3 4 14 3
3 5 4 10
3 6 4 15
3 7 10 7
3 8 4 21
3 9 7 0
3 10 4 0
3 11 26 0
3 15 10 14
3 18 26 11
3 20 7 9
4 3 0 6
4 4 13 7
4 5 17 0
4 6 0 0
4 7 10 0
4 9 17 5
4 15 17 14
4 18 13 11
4 20 0 9
5 4 21 0
5 8 21 21
5 17 21 4
